NAME: instance_115
TYPE: TSP
DIMENSION: 20
EDGE_WEIGHT_TYPE: EUC_2D
NODE_COORD_SECTION
0 39.26 8.75
1 65.62 78.43
2 98.09 37.90
3 6.50 36.83
4 26.88 54.48
5 77.73 61.16
6 0.03 80.63
7 69.40 11.01
8 59.31 72.30
9 1.82 43.70
10 6.53 52.42
11 78.39 61.27
12 57.31 62.22
13 50.70 23.30
14 5.55 73.45
15 0.24 41.08
16 86.05 93.73
17 86.96 0.50
18 11.60 26.39
19 31.81 62.53
EOF
